
Gurobi 11.0.0 (win64) logging started Tue Jul 29 17:13:05 2025

Set parameter LogFile to value "C:\Users\mahu123a\Documents\3l-cvrp-heuristic\data/output/3l-cvrp/all-constraints-heuristic-basic/2025-07-29_17-13-05/BinPackLowerBound.log"

Gurobi 11.0.0 (win64) logging started Tue Jul 29 17:13:05 2025

Set parameter LogFile to value "C:\Users\mahu123a\Documents\3l-cvrp-heuristic\data/output/3l-cvrp/all-constraints-heuristic-basic/2025-07-29_17-13-05/BinPackLowerBound.log"

Gurobi 11.0.0 (win64) logging started Tue Jul 29 17:13:06 2025

Set parameter LogFile to value "C:\Users\mahu123a\Documents\3l-cvrp-heuristic\data/output/3l-cvrp/all-constraints-heuristic-basic/2025-07-29_17-13-05/BinPackLowerBound.log"

Gurobi 11.0.0 (win64) logging started Tue Jul 29 17:13:06 2025

Set parameter LogFile to value "C:\Users\mahu123a\Documents\3l-cvrp-heuristic\data/output/3l-cvrp/all-constraints-heuristic-basic/2025-07-29_17-13-05/BinPackLowerBound.log"
